DATASET = "thpack4";
INSTANCE = "086";

WIDTH = 233;
HEIGHT = 220;
LENGTH = 587;

NO_OF_SHAPES = 10;
size = [|
  87,33,28 |
  97,70,57 |
  71,57,38 |
  63,53,47 |
  77,56,37 |
  102,67,47 |
  72,31,29 |
  84,58,38 |
  84,57,56 |
  88,76,33 |
|];

verticality = [|
  0,1,1 |
  1,1,1 |
  1,1,1 |
  1,1,1 |
  0,1,1 |
  0,1,1 |
  0,1,1 |
  0,1,1 |
  1,1,1 |
  0,0,1 |
|];

box_count = [
  17,
  16,
  16,
  15,
  14,
  13,
  16,
  16,
  17,
  12,
];
